Instance: E051-05e.dat
Class:  4
   50 --- number of customers (no depot)
   12 --- number of vehicles
  134 --- number of items
Capacity - height - width of vehicles
   160     40     20
Node - x - y - demand
    0    30.0    40.0     0.0
    1    37.0    52.0     7.0
    2    49.0    49.0    30.0
    3    52.0    64.0    16.0
    4    20.0    26.0     9.0
    5    40.0    30.0    21.0
    6    21.0    47.0    15.0
    7    17.0    63.0    19.0
    8    31.0    62.0    23.0
    9    52.0    33.0    11.0
   10    51.0    21.0     5.0
   11    42.0    41.0    19.0
   12    31.0    32.0    29.0
   13     5.0    25.0    23.0
   14    12.0    42.0    21.0
   15    36.0    16.0    10.0
   16    52.0    41.0    15.0
   17    27.0    23.0     3.0
   18    17.0    33.0    41.0
   19    13.0    13.0     9.0
   20    57.0    58.0    28.0
   21    62.0    42.0     8.0
   22    42.0    57.0     8.0
   23    16.0    57.0    16.0
   24     8.0    52.0    10.0
   25     7.0    38.0    28.0
   26    27.0    68.0     7.0
   27    30.0    48.0    15.0
   28    43.0    67.0    14.0
   29    58.0    48.0     6.0
   30    58.0    27.0    19.0
   31    37.0    69.0    11.0
   32    38.0    46.0    12.0
   33    46.0    10.0    23.0
   34    61.0    33.0    26.0
   35    62.0    63.0    17.0
   36    63.0    69.0     6.0
   37    32.0    22.0     9.0
   38    45.0    35.0    15.0
   39    59.0    15.0    14.0
   40     5.0     6.0     7.0
   41    10.0    17.0    27.0
   42    21.0    10.0    13.0
   43     5.0    64.0    11.0
   44    30.0    15.0    16.0
   45    39.0    10.0    10.0
   46    32.0    39.0     5.0
   47    25.0    32.0    25.0
   48    25.0    55.0    17.0
   49    48.0    28.0    18.0
   50    56.0    37.0    10.0
Node - number of items - h - w for each item
    0   0
    1   4    7   13    5   13   31    3   26    2
    2   4    5   11    4    6    8    3   16    2
    3   3    6   10   29    4   12    4
    4   3    6   10    7    4   17    3
    5   1   18    4
    6   3    5    7   17    3   27    2
    7   3    5    9   14    4   20    2
    8   2   13    4   18    3
    9   1   23    4
   10   3   14    7   14    4   13    3
   11   2   10    8   10    2
   12   4    6    7   10    5   27    3   17    2
   13   3    6   10    6    8   12    2
   14   1   29    3
   15   3    7    7    8    3   21    2
   16   1    6   13
   17   3    5   12    6    7   13    2
   18   3    6   11    7    7   13    4
   19   3   14    7   13    3   12    3
   20   4    6   12   19    4   31    3   23    3
   21   4    8    9   14    5    6    5   28    3
   22   3    8    5   24    3   16    3
   23   3    5   14   13    4   17    2
   24   3    7    5   16    3   14    3
   25   2    9    7   29    3
   26   4    6   10    5    5   22    3   17    3
   27   3    5    5   26    2    9    2
   28   4    6   12    4   10    4    6   24    3
   29   4    5   14    5   12   26    2   14    2
   30   1   12    3
   31   3    6   10   16    4    9    2
   32   1   15    3
   33   2    5    6   16    3
   34   4    6   14    7    7   31    4    7    4
   35   2    7   10    6    7
   36   2   28    2   12    2
   37   4    5   11    5   10   15    7   30    3
   38   3    6    8    7    5   13    3
   39   3   11    6    8    5   23    3
   40   1    6    6
   41   2    7   13   27    2
   42   4   15    6   16    4   20    2   13    2
   43   4   16    6   22    4   17    3   22    2
   44   1   32    4
   45   1    7    2
   46   2   31    3   18    3
   47   1   16    4
   48   3    4   13    9    6    8    4
   49   2    5   11   30    3
   50   4    6   12   28    3   30    2   21    2
